src/func_extract/util/llvm_print_code_gen/add.txt
"\\cpuregs[10]___#8" 0
"\\cpuregs[11]___#8" 0
"\\cpuregs[12]___#8" 0
"\\cpuregs[13]___#8" 0
"\\cpuregs[14]___#8" 0
"\\cpuregs[15]___#8" 0
"\\cpuregs[16]___#8" 0
"\\cpuregs[17]___#8" 0
"\\cpuregs[18]___#8" 0
"\\cpuregs[19]___#8"  0
"\\cpuregs[1]___#8" 0
"\\cpuregs[20]___#8" 0
"\\cpuregs[21]___#8" 0
"\\cpuregs[22]___#8" 0
"\\cpuregs[23]___#8" 0
"\\cpuregs[24]___#8" 0
"\\cpuregs[25]___#8" 0
"\\cpuregs[26]___#8" 0
"\\cpuregs[27]___#8" 0
"\\cpuregs[28]___#8" 0
"\\cpuregs[29]___#8" 0
"\\cpuregs[2]___#8" 23
"\\cpuregs[30]___#8" 0
"\\cpuregs[31]___#8" 0
"\\cpuregs[3]___#8" 47
"\\cpuregs[4]___#8" 0
"\\cpuregs[5]___#8" 0
"\\cpuregs[6]___#8" 0
"\\cpuregs[7]___#8" 0
"\\cpuregs[8]___#8" 0
"\\cpuregs[9]___#8" 0
"reg_next_pc___#8" 0
